p cnf 430 1488
-191 166 0
-191 111 0
-191 -43 0
-191 175 0
-191 74 0
191 -166 -111 43 -175 -74 0
-192 123 0
-192 -64 0
-192 33 0
-192 51 0
-192 -79 0
192 -123 64 -33 -51 79 0
-193 166 0
-193 150 0
-193 -3 0
-193 -24 0
-193 -116 0
193 -166 -150 3 24 116 0
-194 158 0
-194 -112 0
-194 133 0
-194 -175 0
-194 -78 0
194 -158 112 -133 175 78 0
-195 -90 0
-195 86 0
-195 -166 0
-195 -171 0
-195 -157 0
195 90 -86 166 171 157 0
191 192 193 194 195 0
-196 77 0
-196 95 0
-196 96 0
-196 -14 0
-196 105 0
196 -77 -95 -96 14 -105 0
-197 -182 0
-197 -75 0
-197 38 0
-197 66 0
-197 -135 0
197 182 75 -38 -66 135 0
-198 188 0
-198 57 0
-198 162 0
-198 125 0
-198 -36 0
198 -188 -57 -162 -125 36 0
-199 -121 0
-199 99 0
-199 189 0
-199 96 0
-199 181 0
199 121 -99 -189 -96 -181 0
-200 48 0
-200 78 0
-200 -139 0
-200 -79 0
-200 73 0
200 -48 -78 139 79 -73 0
196 197 198 199 200 0
-201 -15 0
-201 -117 0
-201 -102 0
-201 164 0
-201 173 0
201 15 117 102 -164 -173 0
-202 -37 0
-202 -73 0
-202 136 0
-202 148 0
-202 44 0
202 37 73 -136 -148 -44 0
-203 -31 0
-203 -12 0
-203 27 0
-203 -136 0
-203 -108 0
203 31 12 -27 136 108 0
-204 125 0
-204 -49 0
-204 135 0
-204 -72 0
-204 158 0
204 -125 49 -135 72 -158 0
-205 -119 0
-205 3 0
-205 -132 0
-205 64 0
-205 -188 0
205 119 -3 132 -64 188 0
201 202 203 204 205 0
-206 -86 0
-206 -116 0
-206 -80 0
-206 -133 0
-206 -18 0
206 86 116 80 133 18 0
-207 5 0
-207 2 0
-207 -119 0
-207 181 0
-207 187 0
207 -5 -2 119 -181 -187 0
-208 168 0
-208 -161 0
-208 104 0
-208 169 0
-208 127 0
208 -168 161 -104 -169 -127 0
-209 141 0
-209 -118 0
-209 -143 0
-209 162 0
-209 -150 0
209 -141 118 143 -162 150 0
-210 55 0
-210 161 0
-210 -186 0
-210 105 0
-210 -98 0
210 -55 -161 186 -105 98 0
206 207 208 209 210 0
-211 168 0
-211 -147 0
-211 162 0
-211 174 0
-211 167 0
211 -168 147 -162 -174 -167 0
-212 62 0
-212 -136 0
-212 -33 0
-212 3 0
-212 150 0
212 -62 136 33 -3 -150 0
-213 129 0
-213 49 0
-213 -30 0
-213 52 0
-213 187 0
213 -129 -49 30 -52 -187 0
-214 8 0
-214 53 0
-214 138 0
-214 45 0
-214 -73 0
214 -8 -53 -138 -45 73 0
-215 75 0
-215 31 0
-215 -52 0
-215 68 0
-215 179 0
215 -75 -31 52 -68 -179 0
211 212 213 214 215 0
-216 128 0
-216 -116 0
-216 34 0
-216 -7 0
-216 95 0
216 -128 116 -34 7 -95 0
-217 -25 0
-217 24 0
-217 23 0
-217 127 0
-217 -8 0
217 25 -24 -23 -127 8 0
-218 -93 0
-218 -98 0
-218 -180 0
-218 41 0
-218 -22 0
218 93 98 180 -41 22 0
-219 -20 0
-219 -185 0
-219 -156 0
-219 -124 0
-219 38 0
219 20 185 156 124 -38 0
-220 -47 0
-220 24 0
-220 -99 0
-220 6 0
-220 -104 0
220 47 -24 99 -6 104 0
216 217 218 219 220 0
-221 44 0
-221 106 0
-221 95 0
-221 84 0
-221 30 0
221 -44 -106 -95 -84 -30 0
-222 145 0
-222 15 0
-222 93 0
-222 -24 0
-222 -33 0
222 -145 -15 -93 24 33 0
-223 156 0
-223 142 0
-223 -50 0
-223 171 0
-223 121 0
223 -156 -142 50 -171 -121 0
-224 73 0
-224 -38 0
-224 -159 0
-224 63 0
-224 -16 0
224 -73 38 159 -63 16 0
-225 119 0
-225 -179 0
-225 -173 0
-225 178 0
-225 12 0
225 -119 179 173 -178 -12 0
221 222 223 224 225 0
-226 139 0
-226 77 0
-226 -28 0
-226 106 0
-226 -133 0
226 -139 -77 28 -106 133 0
-227 -132 0
-227 117 0
-227 6 0
-227 -140 0
-227 -133 0
227 132 -117 -6 140 133 0
-228 -40 0
-228 -23 0
-228 139 0
-228 7 0
-228 -10 0
228 40 23 -139 -7 10 0
-229 -22 0
-229 -43 0
-229 -92 0
-229 -20 0
-229 -121 0
229 22 43 92 20 121 0
-230 33 0
-230 20 0
-230 -105 0
-230 -108 0
-230 -190 0
230 -33 -20 105 108 190 0
226 227 228 229 230 0
-231 4 0
-231 94 0
-231 -6 0
-231 17 0
-231 18 0
231 -4 -94 6 -17 -18 0
-232 143 0
-232 86 0
-232 51 0
-232 -169 0
-232 17 0
232 -143 -86 -51 169 -17 0
-233 -41 0
-233 95 0
-233 143 0
-233 -7 0
-233 -90 0
233 41 -95 -143 7 90 0
-234 98 0
-234 -9 0
-234 27 0
-234 -175 0
-234 4 0
234 -98 9 -27 175 -4 0
-235 180 0
-235 79 0
-235 166 0
-235 -104 0
-235 123 0
235 -180 -79 -166 104 -123 0
231 232 233 234 235 0
-236 -31 0
-236 -7 0
-236 -85 0
-236 -128 0
-236 175 0
236 31 7 85 128 -175 0
-237 -118 0
-237 -138 0
-237 1 0
-237 -89 0
-237 -130 0
237 118 138 -1 89 130 0
-238 69 0
-238 -159 0
-238 -141 0
-238 -118 0
-238 97 0
238 -69 159 141 118 -97 0
-239 -29 0
-239 122 0
-239 60 0
-239 153 0
-239 28 0
239 29 -122 -60 -153 -28 0
-240 -117 0
-240 126 0
-240 81 0
-240 37 0
-240 169 0
240 117 -126 -81 -37 -169 0
236 237 238 239 240 0
-241 -132 0
-241 39 0
-241 -161 0
-241 -182 0
-241 -147 0
241 132 -39 161 182 147 0
-242 150 0
-242 55 0
-242 -7 0
-242 135 0
-242 -11 0
242 -150 -55 7 -135 11 0
-243 -172 0
-243 -36 0
-243 15 0
-243 -159 0
-243 180 0
243 172 36 -15 159 -180 0
-244 165 0
-244 176 0
-244 -50 0
-244 -126 0
-244 -182 0
244 -165 -176 50 126 182 0
-245 72 0
-245 -57 0
-245 166 0
-245 96 0
-245 -105 0
245 -72 57 -166 -96 105 0
241 242 243 244 245 0
-246 99 0
-246 -160 0
-246 64 0
-246 156 0
-246 -176 0
246 -99 160 -64 -156 176 0
-247 -50 0
-247 -160 0
-247 -152 0
-247 59 0
-247 141 0
247 50 160 152 -59 -141 0
-248 -172 0
-248 17 0
-248 -2 0
-248 -115 0
-248 169 0
248 172 -17 2 115 -169 0
-249 145 0
-249 -25 0
-249 49 0
-249 156 0
-249 -127 0
249 -145 25 -49 -156 127 0
-250 169 0
-250 -87 0
-250 89 0
-250 -162 0
-250 -58 0
250 -169 87 -89 162 58 0
246 247 248 249 250 0
-251 117 0
-251 -124 0
-251 36 0
-251 74 0
-251 42 0
251 -117 124 -36 -74 -42 0
-252 121 0
-252 135 0
-252 -53 0
-252 -107 0
-252 130 0
252 -121 -135 53 107 -130 0
-253 -84 0
-253 -53 0
-253 -178 0
-253 122 0
-253 -88 0
253 84 53 178 -122 88 0
-254 86 0
-254 -140 0
-254 -58 0
-254 -102 0
-254 -155 0
254 -86 140 58 102 155 0
-255 -108 0
-255 100 0
-255 -59 0
-255 -165 0
-255 -88 0
255 108 -100 59 165 88 0
251 252 253 254 255 0
-256 -19 0
-256 164 0
-256 -140 0
-256 22 0
-256 107 0
256 19 -164 140 -22 -107 0
-257 41 0
-257 129 0
-257 -8 0
-257 -67 0
-257 -21 0
257 -41 -129 8 67 21 0
-258 -95 0
-258 185 0
-258 54 0
-258 19 0
-258 72 0
258 95 -185 -54 -19 -72 0
-259 -4 0
-259 -108 0
-259 178 0
-259 190 0
-259 -81 0
259 4 108 -178 -190 81 0
-260 172 0
-260 130 0
-260 78 0
-260 168 0
-260 -57 0
260 -172 -130 -78 -168 57 0
256 257 258 259 260 0
-261 40 0
-261 165 0
-261 -144 0
-261 79 0
-261 190 0
261 -40 -165 144 -79 -190 0
-262 96 0
-262 134 0
-262 173 0
-262 -153 0
-262 -138 0
262 -96 -134 -173 153 138 0
-263 150 0
-263 137 0
-263 -90 0
-263 158 0
-263 -56 0
263 -150 -137 90 -158 56 0
-264 169 0
-264 63 0
-264 35 0
-264 -117 0
-264 -154 0
264 -169 -63 -35 117 154 0
-265 54 0
-265 -115 0
-265 104 0
-265 -37 0
-265 -82 0
265 -54 115 -104 37 82 0
261 262 263 264 265 0
-266 -81 0
-266 -53 0
-266 -158 0
-266 44 0
-266 52 0
266 81 53 158 -44 -52 0
-267 119 0
-267 -133 0
-267 -47 0
-267 -171 0
-267 55 0
267 -119 133 47 171 -55 0
-268 -98 0
-268 132 0
-268 160 0
-268 -189 0
-268 47 0
268 98 -132 -160 189 -47 0
-269 121 0
-269 45 0
-269 57 0
-269 -44 0
-269 139 0
269 -121 -45 -57 44 -139 0
-270 25 0
-270 -89 0
-270 -129 0
-270 -136 0
-270 82 0
270 -25 89 129 136 -82 0
266 267 268 269 270 0
-271 2 0
-271 -185 0
-271 -33 0
-271 86 0
-271 -183 0
271 -2 185 33 -86 183 0
-272 155 0
-272 148 0
-272 12 0
-272 -106 0
-272 81 0
272 -155 -148 -12 106 -81 0
-273 141 0
-273 -174 0
-273 80 0
-273 104 0
-273 59 0
273 -141 174 -80 -104 -59 0
-274 101 0
-274 -109 0
-274 118 0
-274 132 0
-274 -167 0
274 -101 109 -118 -132 167 0
-275 30 0
-275 -23 0
-275 -78 0
-275 106 0
-275 89 0
275 -30 23 78 -106 -89 0
271 272 273 274 275 0
-276 60 0
-276 -18 0
-276 169 0
-276 -24 0
-276 143 0
276 -60 18 -169 24 -143 0
-277 -106 0
-277 110 0
-277 166 0
-277 67 0
-277 121 0
277 106 -110 -166 -67 -121 0
-278 183 0
-278 -80 0
-278 118 0
-278 -91 0
-278 138 0
278 -183 80 -118 91 -138 0
-279 -181 0
-279 -98 0
-279 105 0
-279 135 0
-279 139 0
279 181 98 -105 -135 -139 0
-280 -43 0
-280 -98 0
-280 -187 0
-280 -93 0
-280 -148 0
280 43 98 187 93 148 0
276 277 278 279 280 0
-281 60 0
-281 -73 0
-281 -187 0
-281 -123 0
-281 117 0
281 -60 73 187 123 -117 0
-282 -125 0
-282 -8 0
-282 145 0
-282 -142 0
-282 -48 0
282 125 8 -145 142 48 0
-283 -91 0
-283 -120 0
-283 142 0
-283 3 0
-283 44 0
283 91 120 -142 -3 -44 0
-284 -93 0
-284 118 0
-284 -79 0
-284 129 0
-284 -64 0
284 93 -118 79 -129 64 0
-285 77 0
-285 53 0
-285 -178 0
-285 -28 0
-285 -11 0
285 -77 -53 178 28 11 0
281 282 283 284 285 0
-286 -184 0
-286 168 0
-286 10 0
-286 -51 0
-286 -68 0
286 184 -168 -10 51 68 0
-287 127 0
-287 188 0
-287 -132 0
-287 130 0
-287 -23 0
287 -127 -188 132 -130 23 0
-288 72 0
-288 -31 0
-288 -11 0
-288 83 0
-288 -3 0
288 -72 31 11 -83 3 0
-289 85 0
-289 68 0
-289 83 0
-289 10 0
-289 -52 0
289 -85 -68 -83 -10 52 0
-290 161 0
-290 146 0
-290 43 0
-290 47 0
-290 -74 0
290 -161 -146 -43 -47 74 0
286 287 288 289 290 0
-291 -145 0
-291 82 0
-291 -166 0
-291 95 0
-291 -29 0
291 145 -82 166 -95 29 0
-292 -50 0
-292 -64 0
-292 -180 0
-292 -66 0
-292 131 0
292 50 64 180 66 -131 0
-293 -90 0
-293 113 0
-293 81 0
-293 -51 0
-293 106 0
293 90 -113 -81 51 -106 0
-294 85 0
-294 184 0
-294 112 0
-294 -8 0
-294 -99 0
294 -85 -184 -112 8 99 0
-295 64 0
-295 121 0
-295 161 0
-295 183 0
-295 96 0
295 -64 -121 -161 -183 -96 0
291 292 293 294 295 0
-296 102 0
-296 22 0
-296 -68 0
-296 14 0
-296 97 0
296 -102 -22 68 -14 -97 0
-297 -151 0
-297 28 0
-297 -96 0
-297 178 0
-297 131 0
297 151 -28 96 -178 -131 0
-298 180 0
-298 -144 0
-298 -186 0
-298 -31 0
-298 -3 0
298 -180 144 186 31 3 0
-299 -149 0
-299 -85 0
-299 -20 0
-299 -22 0
-299 143 0
299 149 85 20 22 -143 0
-300 -126 0
-300 -64 0
-300 144 0
-300 -75 0
-300 -185 0
300 126 64 -144 75 185 0
296 297 298 299 300 0
-301 -34 0
-301 -6 0
-301 50 0
-301 -13 0
-301 -133 0
301 34 6 -50 13 133 0
-302 -168 0
-302 27 0
-302 90 0
-302 87 0
-302 -89 0
302 168 -27 -90 -87 89 0
-303 40 0
-303 16 0
-303 70 0
-303 -3 0
-303 172 0
303 -40 -16 -70 3 -172 0
-304 -72 0
-304 -83 0
-304 142 0
-304 -11 0
-304 167 0
304 72 83 -142 11 -167 0
-305 -80 0
-305 74 0
-305 -109 0
-305 182 0
-305 -31 0
305 80 -74 109 -182 31 0
301 302 303 304 305 0
-306 70 0
-306 7 0
-306 -15 0
-306 40 0
-306 -33 0
306 -70 -7 15 -40 33 0
-307 -45 0
-307 11 0
-307 -152 0
-307 -138 0
-307 -175 0
307 45 -11 152 138 175 0
-308 71 0
-308 -187 0
-308 -63 0
-308 -73 0
-308 166 0
308 -71 187 63 73 -166 0
-309 -79 0
-309 -81 0
-309 41 0
-309 86 0
-309 -141 0
309 79 81 -41 -86 141 0
-310 -187 0
-310 -77 0
-310 83 0
-310 -144 0
-310 -30 0
310 187 77 -83 144 30 0
306 307 308 309 310 0
-311 -37 0
-311 -24 0
-311 -81 0
-311 116 0
-311 -132 0
311 37 24 81 -116 132 0
-312 38 0
-312 -87 0
-312 -154 0
-312 -52 0
-312 189 0
312 -38 87 154 52 -189 0
-313 175 0
-313 -11 0
-313 157 0
-313 -127 0
-313 -86 0
313 -175 11 -157 127 86 0
-314 133 0
-314 174 0
-314 -140 0
-314 -67 0
-314 32 0
314 -133 -174 140 67 -32 0
-315 83 0
-315 -30 0
-315 2 0
-315 91 0
-315 -77 0
315 -83 30 -2 -91 77 0
311 312 313 314 315 0
-316 -63 0
-316 -65 0
-316 -155 0
-316 107 0
-316 -99 0
316 63 65 155 -107 99 0
-317 -177 0
-317 104 0
-317 184 0
-317 -87 0
-317 96 0
317 177 -104 -184 87 -96 0
-318 -86 0
-318 82 0
-318 -87 0
-318 -76 0
-318 42 0
318 86 -82 87 76 -42 0
-319 14 0
-319 11 0
-319 -100 0
-319 152 0
-319 157 0
319 -14 -11 100 -152 -157 0
-320 131 0
-320 54 0
-320 -31 0
-320 -182 0
-320 94 0
320 -131 -54 31 182 -94 0
316 317 318 319 320 0
-321 -85 0
-321 -84 0
-321 109 0
-321 -60 0
-321 -188 0
321 85 84 -109 60 188 0
-322 -73 0
-322 -34 0
-322 -79 0
-322 31 0
-322 91 0
322 73 34 79 -31 -91 0
-323 -109 0
-323 -54 0
-323 -169 0
-323 44 0
-323 -134 0
323 109 54 169 -44 134 0
-324 109 0
-324 107 0
-324 -41 0
-324 96 0
-324 -21 0
324 -109 -107 41 -96 21 0
-325 -92 0
-325 -79 0
-325 -21 0
-325 -110 0
-325 14 0
325 92 79 21 110 -14 0
321 322 323 324 325 0
-326 190 0
-326 -173 0
-326 -135 0
-326 37 0
-326 -100 0
326 -190 173 135 -37 100 0
-327 -154 0
-327 161 0
-327 33 0
-327 -60 0
-327 -87 0
327 154 -161 -33 60 87 0
-328 149 0
-328 -39 0
-328 48 0
-328 99 0
-328 106 0
328 -149 39 -48 -99 -106 0
-329 121 0
-329 175 0
-329 19 0
-329 160 0
-329 100 0
329 -121 -175 -19 -160 -100 0
-330 -141 0
-330 88 0
-330 79 0
-330 190 0
-330 166 0
330 141 -88 -79 -190 -166 0
326 327 328 329 330 0
-331 107 0
-331 184 0
-331 77 0
-331 -110 0
-331 132 0
331 -107 -184 -77 110 -132 0
-332 -186 0
-332 -103 0
-332 -4 0
-332 83 0
-332 150 0
332 186 103 4 -83 -150 0
-333 52 0
-333 47 0
-333 153 0
-333 -34 0
-333 -50 0
333 -52 -47 -153 34 50 0
-334 -91 0
-334 -69 0
-334 -64 0
-334 -98 0
-334 114 0
334 91 69 64 98 -114 0
-335 164 0
-335 -30 0
-335 108 0
-335 179 0
-335 -6 0
335 -164 30 -108 -179 6 0
331 332 333 334 335 0
-336 -129 0
-336 52 0
-336 -162 0
-336 -144 0
-336 -39 0
336 129 -52 162 144 39 0
-337 75 0
-337 -111 0
-337 34 0
-337 27 0
-337 58 0
337 -75 111 -34 -27 -58 0
-338 -120 0
-338 -107 0
-338 9 0
-338 188 0
-338 -71 0
338 120 107 -9 -188 71 0
-339 -39 0
-339 12 0
-339 29 0
-339 58 0
-339 59 0
339 39 -12 -29 -58 -59 0
-340 179 0
-340 29 0
-340 9 0
-340 -120 0
-340 -180 0
340 -179 -29 -9 120 180 0
336 337 338 339 340 0
-341 62 0
-341 138 0
-341 116 0
-341 13 0
-341 18 0
341 -62 -138 -116 -13 -18 0
-342 49 0
-342 66 0
-342 -88 0
-342 58 0
-342 126 0
342 -49 -66 88 -58 -126 0
-343 75 0
-343 41 0
-343 -64 0
-343 -158 0
-343 -115 0
343 -75 -41 64 158 115 0
-344 159 0
-344 -34 0
-344 -40 0
-344 -48 0
-344 43 0
344 -159 34 40 48 -43 0
-345 -148 0
-345 -35 0
-345 -156 0
-345 70 0
-345 150 0
345 148 35 156 -70 -150 0
341 342 343 344 345 0
-346 175 0
-346 -176 0
-346 -165 0
-346 8 0
-346 170 0
346 -175 176 165 -8 -170 0
-347 -99 0
-347 -77 0
-347 102 0
-347 -140 0
-347 -76 0
347 99 77 -102 140 76 0
-348 -84 0
-348 -115 0
-348 -86 0
-348 -34 0
-348 140 0
348 84 115 86 34 -140 0
-349 90 0
-349 103 0
-349 -134 0
-349 -179 0
-349 -109 0
349 -90 -103 134 179 109 0
-350 -14 0
-350 74 0
-350 -87 0
-350 21 0
-350 36 0
350 14 -74 87 -21 -36 0
346 347 348 349 350 0
-351 118 0
-351 163 0
-351 -105 0
-351 -136 0
-351 -34 0
351 -118 -163 105 136 34 0
-352 105 0
-352 30 0
-352 51 0
-352 -160 0
-352 -40 0
352 -105 -30 -51 160 40 0
-353 147 0
-353 -104 0
-353 150 0
-353 -12 0
-353 -7 0
353 -147 104 -150 12 7 0
-354 -186 0
-354 -164 0
-354 -35 0
-354 48 0
-354 51 0
354 186 164 35 -48 -51 0
-355 -72 0
-355 25 0
-355 134 0
-355 -142 0
-355 -149 0
355 72 -25 -134 142 149 0
351 352 353 354 355 0
-356 114 0
-356 -150 0
-356 125 0
-356 76 0
-356 59 0
356 -114 150 -125 -76 -59 0
-357 -24 0
-357 -135 0
-357 88 0
-357 77 0
-357 85 0
357 24 135 -88 -77 -85 0
-358 134 0
-358 177 0
-358 -185 0
-358 152 0
-358 62 0
358 -134 -177 185 -152 -62 0
-359 16 0
-359 156 0
-359 -82 0
-359 -131 0
-359 -122 0
359 -16 -156 82 131 122 0
-360 -183 0
-360 -99 0
-360 145 0
-360 150 0
-360 118 0
360 183 99 -145 -150 -118 0
356 357 358 359 360 0
-361 -79 0
-361 -89 0
-361 120 0
-361 65 0
-361 -98 0
361 79 89 -120 -65 98 0
-362 -34 0
-362 25 0
-362 104 0
-362 -156 0
-362 -36 0
362 34 -25 -104 156 36 0
-363 -163 0
-363 45 0
-363 137 0
-363 -129 0
-363 150 0
363 163 -45 -137 129 -150 0
-364 -29 0
-364 102 0
-364 -117 0
-364 -85 0
-364 -16 0
364 29 -102 117 85 16 0
-365 -127 0
-365 112 0
-365 118 0
-365 155 0
-365 28 0
365 127 -112 -118 -155 -28 0
361 362 363 364 365 0
-366 -94 0
-366 -88 0
-366 16 0
-366 -18 0
-366 -101 0
366 94 88 -16 18 101 0
-367 -19 0
-367 161 0
-367 82 0
-367 -170 0
-367 3 0
367 19 -161 -82 170 -3 0
-368 174 0
-368 89 0
-368 13 0
-368 103 0
-368 145 0
368 -174 -89 -13 -103 -145 0
-369 134 0
-369 -9 0
-369 57 0
-369 103 0
-369 -126 0
369 -134 9 -57 -103 126 0
-370 -16 0
-370 -189 0
-370 -123 0
-370 26 0
-370 -54 0
370 16 189 123 -26 54 0
366 367 368 369 370 0
-371 -69 0
-371 -44 0
-371 -27 0
-371 154 0
-371 -124 0
371 69 44 27 -154 124 0
-372 76 0
-372 -69 0
-372 -21 0
-372 167 0
-372 -175 0
372 -76 69 21 -167 175 0
-373 155 0
-373 -163 0
-373 45 0
-373 -42 0
-373 -40 0
373 -155 163 -45 42 40 0
-374 114 0
-374 107 0
-374 -62 0
-374 149 0
-374 58 0
374 -114 -107 62 -149 -58 0
-375 -48 0
-375 183 0
-375 144 0
-375 150 0
-375 -54 0
375 48 -183 -144 -150 54 0
371 372 373 374 375 0
-376 -20 0
-376 129 0
-376 -132 0
-376 155 0
-376 -68 0
376 20 -129 132 -155 68 0
-377 7 0
-377 184 0
-377 -178 0
-377 157 0
-377 80 0
377 -7 -184 178 -157 -80 0
-378 -122 0
-378 -80 0
-378 -166 0
-378 46 0
-378 -72 0
378 122 80 166 -46 72 0
-379 -162 0
-379 160 0
-379 -163 0
-379 51 0
-379 -93 0
379 162 -160 163 -51 93 0
-380 -143 0
-380 -115 0
-380 145 0
-380 -98 0
-380 -128 0
380 143 115 -145 98 128 0
376 377 378 379 380 0
-381 -116 0
-381 -52 0
-381 23 0
-381 -33 0
-381 -163 0
381 116 52 -23 33 163 0
-382 20 0
-382 174 0
-382 30 0
-382 -143 0
-382 5 0
382 -20 -174 -30 143 -5 0
-383 -20 0
-383 93 0
-383 160 0
-383 154 0
-383 30 0
383 20 -93 -160 -154 -30 0
-384 -91 0
-384 -49 0
-384 180 0
-384 169 0
-384 76 0
384 91 49 -180 -169 -76 0
-385 -136 0
-385 113 0
-385 -16 0
-385 154 0
-385 -73 0
385 136 -113 16 -154 73 0
381 382 383 384 385 0
-386 -6 0
-386 137 0
-386 100 0
-386 -68 0
-386 -178 0
386 6 -137 -100 68 178 0
-387 -13 0
-387 -21 0
-387 -40 0
-387 -71 0
-387 -111 0
387 13 21 40 71 111 0
-388 146 0
-388 -4 0
-388 123 0
-388 -142 0
-388 2 0
388 -146 4 -123 142 -2 0
-389 100 0
-389 -44 0
-389 -59 0
-389 -38 0
-389 -156 0
389 -100 44 59 38 156 0
-390 -161 0
-390 142 0
-390 46 0
-390 45 0
-390 182 0
390 161 -142 -46 -45 -182 0
386 387 388 389 390 0
-391 -44 0
-391 -173 0
-391 -37 0
-391 -92 0
-391 122 0
391 44 173 37 92 -122 0
-392 -89 0
-392 132 0
-392 119 0
-392 29 0
-392 -35 0
392 89 -132 -119 -29 35 0
-393 -145 0
-393 60 0
-393 56 0
-393 136 0
-393 -43 0
393 145 -60 -56 -136 43 0
-394 150 0
-394 -142 0
-394 174 0
-394 188 0
-394 -66 0
394 -150 142 -174 -188 66 0
-395 -134 0
-395 18 0
-395 -138 0
-395 -66 0
-395 -63 0
395 134 -18 138 66 63 0
391 392 393 394 395 0
-396 -101 0
-396 -32 0
-396 -106 0
-396 -49 0
-396 183 0
396 101 32 106 49 -183 0
-397 47 0
-397 -75 0
-397 -54 0
-397 -150 0
-397 28 0
397 -47 75 54 150 -28 0
-398 153 0
-398 -28 0
-398 100 0
-398 -29 0
-398 86 0
398 -153 28 -100 29 -86 0
-399 -143 0
-399 -103 0
-399 8 0
-399 182 0
-399 114 0
399 143 103 -8 -182 -114 0
-400 167 0
-400 -129 0
-400 -114 0
-400 -132 0
-400 -175 0
400 -167 129 114 132 175 0
396 397 398 399 400 0
-401 147 0
-401 96 0
-401 -17 0
-401 106 0
-401 125 0
401 -147 -96 17 -106 -125 0
-402 -179 0
-402 -167 0
-402 144 0
-402 -54 0
-402 -66 0
402 179 167 -144 54 66 0
-403 -33 0
-403 53 0
-403 21 0
-403 -97 0
-403 166 0
403 33 -53 -21 97 -166 0
-404 -187 0
-404 170 0
-404 161 0
-404 -59 0
-404 182 0
404 187 -170 -161 59 -182 0
-405 -27 0
-405 -127 0
-405 -90 0
-405 -34 0
-405 -133 0
405 27 127 90 34 133 0
401 402 403 404 405 0
-406 46 0
-406 172 0
-406 -139 0
-406 154 0
-406 124 0
406 -46 -172 139 -154 -124 0
-407 -188 0
-407 189 0
-407 -19 0
-407 -107 0
-407 95 0
407 188 -189 19 107 -95 0
-408 -183 0
-408 -92 0
-408 -144 0
-408 75 0
-408 -95 0
408 183 92 144 -75 95 0
-409 -88 0
-409 -188 0
-409 70 0
-409 -187 0
-409 180 0
409 88 188 -70 187 -180 0
-410 81 0
-410 110 0
-410 75 0
-410 9 0
-410 6 0
410 -81 -110 -75 -9 -6 0
406 407 408 409 410 0
-411 -90 0
-411 -136 0
-411 -42 0
-411 114 0
-411 -148 0
411 90 136 42 -114 148 0
-412 164 0
-412 -190 0
-412 51 0
-412 -28 0
-412 -17 0
412 -164 190 -51 28 17 0
-413 -95 0
-413 131 0
-413 -167 0
-413 114 0
-413 61 0
413 95 -131 167 -114 -61 0
-414 -21 0
-414 -60 0
-414 97 0
-414 -11 0
-414 10 0
414 21 60 -97 11 -10 0
-415 40 0
-415 117 0
-415 34 0
-415 65 0
-415 -109 0
415 -40 -117 -34 -65 109 0
411 412 413 414 415 0
-416 86 0
-416 119 0
-416 -9 0
-416 -75 0
-416 85 0
416 -86 -119 9 75 -85 0
-417 -106 0
-417 127 0
-417 149 0
-417 166 0
-417 70 0
417 106 -127 -149 -166 -70 0
-418 -117 0
-418 -160 0
-418 113 0
-418 -130 0
-418 173 0
418 117 160 -113 130 -173 0
-419 31 0
-419 19 0
-419 -74 0
-419 -152 0
-419 158 0
419 -31 -19 74 152 -158 0
-420 -58 0
-420 155 0
-420 -28 0
-420 121 0
-420 4 0
420 58 -155 28 -121 -4 0
416 417 418 419 420 0
-421 181 0
-421 69 0
-421 -109 0
-421 -186 0
-421 172 0
421 -181 -69 109 186 -172 0
-422 -90 0
-422 -74 0
-422 -180 0
-422 85 0
-422 -130 0
422 90 74 180 -85 130 0
-423 -127 0
-423 -61 0
-423 177 0
-423 112 0
-423 182 0
423 127 61 -177 -112 -182 0
-424 -166 0
-424 96 0
-424 185 0
-424 143 0
-424 23 0
424 166 -96 -185 -143 -23 0
-425 63 0
-425 101 0
-425 -62 0
-425 -182 0
-425 161 0
425 -63 -101 62 182 -161 0
421 422 423 424 425 0
-426 97 0
-426 4 0
-426 61 0
-426 -149 0
-426 -113 0
426 -97 -4 -61 149 113 0
-427 85 0
-427 -137 0
-427 57 0
-427 -155 0
-427 -16 0
427 -85 137 -57 155 16 0
-428 17 0
-428 65 0
-428 -116 0
-428 -46 0
-428 24 0
428 -17 -65 116 46 -24 0
-429 148 0
-429 103 0
-429 68 0
-429 80 0
-429 146 0
429 -148 -103 -68 -80 -146 0
-430 94 0
-430 -183 0
-430 -18 0
-430 -73 0
-430 -16 0
430 -94 183 18 73 16 0
426 427 428 429 430 0
